(set-logic QF_S)
(declare-fun _var_0xINPUT_103851_() String)
(declare-fun __woorpje_diseq_pref0_() String)
(declare-fun __woorpje_diseq_suf_l0_() String)
(declare-fun __woorpje_diseq_suf_r0_() String)
(assert (=(str.++ _var_0xINPUT_103851_  "")(str.++ __woorpje_diseq_pref0_  "Y" __woorpje_diseq_suf_l0_  "")) )
(assert (=(str.++  "KDFcdFYFqb" "")(str.++ __woorpje_diseq_pref0_  "b" __woorpje_diseq_suf_r0_  "")) )
(check-sat)
